3365
2073
2273
4298
3554
4119
2145
1123
1198
1322
3202
1399
2606
1478
840
238
145
1873
1316
1592
2464
2501
1707
4031
880
163
1950
2106
3975
1614
1620
2220
2462
2307
3292
3376
1979
387
1863
2055
732
4019
3553
3415
3621
360
3372
2626
3929
2382
3391
1394
3933
1054
3341
3925
1851
4248
955
356
3224
3403
1293
3206
2833
2289
3338
3697
1767
3198
1788
1568
2888
2476
2864
1937
2377
3950
3660
845
675
1837
1968
4102
439
3797
2388
226
967
2224
3829
1556
2707
375
874
3051
2742
4011
1217
139
